80
[[-1, 39970, 25169, 0, 0, 11859, 0, 0, 0, 44953, 40782, 0, 0, 0, 0, 0, 23512, 30442, 0, 0, 0, 0, 22294, 0, 39894, 39677, 37317, 0, 0, 0, 0, 0, 0, 0, 31319, 0, 38987, 0, 0, 0, 0, 0, 0, 44380, 0, 0, 0, 0, 39375, 27005, 0, 24909, 0, 0, 0, 0, 0, 35339, 0, 10836, 22230, 0, 0, 26710, 0, 0, 0, 0, 0, 0, 16180, 41100, 0, 5134, 0, 40771, 39874, 0, 0, 0],[39970, -1, 0, 0, 0, 0, 0, 0, 0, 22731, 0, 3060, 32709, 40673, 0, 0, 25368, 0, 0, 0, 0, 24223, 0, 31157, 0, 0, 0, 26615, 0, 0, 0, 0, 0, 0, 0, 0, 0, 0, 0, 0, 0, 0, 0, 0, 21887, 26761, 0, 0, 22938, 0, 0, 0, 0, 0, 31815, 0, 0, 0, 0, 31322, 0, 0, 24619, 0, 0, 0, 0, 0, 39985, 0, 0, 0, 0, 0, 0, 0, 0, 13935, 0, 0],[25169, 0, -1, 0, 21688, 0, 0, 0, 39701, 0, 0, 0, 0, 0, 0, 39904, 0, 0, 0, 0, 36617, 0, 0, 0, 0, 0, 0, 0, 0, 21623, 33423, 0, 28522, 0, 26273, 0, 0, 0, 21664, 22751, 0, 0, 0, 0, 0, 0, 0, 0, 0, 0, 0, 0, 41676, 2373, 0, 34259, 0, 0, 0, 0, 0, 0, 43779, 0, 0, 42177, 0, 45625, 0, 0, 0, 44503, 0, 0, 0, 22669, 43042, 0, 23734, 32203],[0, 0, 0, -1, 0, 0, 0, 0, 0, 37482, 0, 0, 19695, 31830, 25183, 35133, 0, 32344, 0, 0, 0, 29520, 0, 29914, 34068, 0, 0, 0, 0, 0, 0, 0, 0, 0, 0, 0, 0, 0, 14223, 0, 21119, 39756, 0, 0, 0, 26474, 0, 0, 31112, 0, 0, 35585, 20601, 0, 0, 0, 0, 19536, 0, 23169, 0, 0, 0, 17478, 32064, 0, 0, 0, 0, 0, 0, 38720, 0, 42181, 0, 0, 0, 0, 0, 41679],[0, 0, 21688, 0, -1, 45203, 0, 0, 0, 0, 0, 0, 0, 0, 30973, 0, 0, 0, 0, 0, 0, 0, 0, 43078, 0, 42112, 0, 23177, 5649, 0, 0, 0, 0, 15572, 0, 39782, 24947, 29639, 0, 0, 44818, 39358, 0, 0, 0, 0, 38856, 41570, 0, 0, 0, 0, 18088, 0, 0, 31068, 25884, 0, 44364, 0, 0, 0, 26263, 42443, 0, 35640, 0, 24554, 0, 32735, 0, 0, 42946, 0, 0, 0, 0, 0, 0, 0],[11859, 0, 0, 0, 45203, -1, 0, 0, 0, 0, 14357, 0, 0, 0, 0, 40203, 0, 0, 0, 0, 39843, 0, 0, 34802, 0, 0, 0, 41074, 0, 0, 0, 0, 0, 0, 31182, 0, 0, 0, 0, 0, 10818, 0, 0, 0, 0, 0, 0, 31529, 0, 0, 0, 26274, 0, 42893, 0, 0, 0, 0, 14914, 40317, 0, 24309, 0, 44231, 0, 37056, 0, 0, 28304, 0, 27023, 0, 0, 0, 0, 0, 40249, 0, 0, 0],[0, 0, 0, 0, 0, 0, -1, 0, 0, 43786, 0, 0, 0, 32595, 0, 20442, 0, 0, 0, 0, 19439, 0, 0, 34708, 0, 0, 37042, 28848, 20321, 0, 0, 38941, 0, 0, 0, 0, 43124, 0, 0, 0, 0, 38348, 0, 0, 0, 0, 22975, 0, 0, 0, 0, 28996, 0, 0, 0, 43294, 0, 0, 0, 0, 18026, 0, 31384, 38501, 0, 0, 0, 0, 0, 0, 0, 0, 39190, 0, 36508, 0, 0, 0, 16312, 32174],[0, 0, 0, 0, 0, 0, 0, -1, 0, 0, 0, 0, 0, 0, 44946, 0, 29645, 0, 29148, 0, 0, 0, 0, 0, 0, 8843, 0, 0, 0, 0, 0, 0, 0, 0, 0, 39530, 0, 0, 0, 0, 0, 20745, 37965, 0, 0, 0, 0, 0, 7815, 0, 0, 0, 0, 29586, 0, 0, 41757, 0, 0, 45839, 11243, 0, 0, 0, 0, 0, 0, 38296, 4651, 24599, 0, 0, 0, 27826, 0, 0, 0, 30814, 0, 0],[0, 0, 39701, 0, 0, 0, 0, 0, -1, 0, 0, 35064, 0, 9519, 43329, 42762, 20034, 0, 0, 0, 0, 0, 0, 0, 22733, 0, 0, 0, 0, 0, 0, 0, 29631, 6408, 0, 0, 36974, 20863, 45634, 0, 45399, 0, 0, 0, 0, 0, 42732, 0, 0, 0, 0, 0, 0, 0, 0, 0, 0, 37067, 0, 0, 0, 0, 22825, 0, 34412, 32050, 0, 0, 35255, 34640, 0, 44811, 0, 0, 0, 0, 31139, 43151, 0, 0],[44953, 22731, 0, 37482, 0, 0, 43786, 0, 0, -1, 0, 0, 0, 32700, 35782, 0, 0, 36959, 0, 0, 23578, 0, 43446, 0, 31128, 0, 0, 20692, 0, 0, 0, 0, 0, 40077, 0, 0, 0, 0, 0, 0, 0, 39671, 0, 0, 0, 0, 16736, 0, 0, 0, 24533, 0, 0, 0, 30336, 0, 0, 0, 19578, 0, 0, 35203, 21025, 28223, 0, 0, 0, 18627, 0, 0, 0, 45867, 24025, 24317, 0, 0, 0, 0, 0, 0],[40782, 0, 0, 0, 0, 14357, 0, 0, 0, 0, -1, 0, 14686, 0, 0, 0, 0, 0, 0, 0, 0, 0, 0, 0, 0, 0, 43788, 32304, 0, 0, 0, 33388, 0, 0, 0, 0, 0, 0, 36027, 39256, 0, 0, 0, 25722, 0, 0, 0, 0, 0, 0, 39305, 0, 0, 0, 0, 0, 0, 40470, 0, 0, 0, 0, 18979, 0, 0, 0, 26394, 5023, 0, 0, 0, 0, 20388, 0, 0, 0, 0, 27953, 0, 24265],[0, 3060, 0, 0, 0, 0, 0, 0, 35064, 0, 0, -1, 0, 0, 0, 0, 0, 0, 0, 0, 0, 0, 0, 8224, 0, 3716, 11519, 35845, 18847, 0, 0, 0, 0, 0, 0, 0, 0, 0, 0, 0, 0, 0, 0, 0, 0, 0, 0, 0, 0, 0, 0, 0, 26456, 45207, 0, 0, 0, 0, 44132, 37108, 36625, 0, 0, 0, 0, 0, 0, 0, 0, 25331, 0, 0, 0, 0, 0, 25024, 0, 0, 34916, 0],[0, 32709, 0, 19695, 0, 0, 0, 0, 0, 0, 14686, 0, -1, 0, 0, 0, 0, 0, 0, 0, 0, 0, 0, 0, 0, 0, 0, 0, 0, 0, 39928, 45366, 0, 0, 0, 0, 0, 0, 0, 0, 37523, 0, 0, 0, 0, 0, 0, 0, 0, 0, 24437, 0, 0, 0, 45462, 0, 0, 0, 37825, 0, 0, 0, 44638, 33468, 0, 0, 0, 31200, 0, 0, 0, 0, 0, 0, 45329, 0, 0, 0, 0, 0],[0, 40673, 0, 31830, 0, 0, 32595, 0, 9519, 32700, 0, 0, 0, -1, 0, 20699, 0, 42936, 0, 0, 38997, 43649, 31198, 0, 44328, 0, 0, 0, 0, 0, 26716, 0, 0, 41677, 37867, 0, 0, 0, 35799, 0, 43982, 15664, 0, 0, 0, 34793, 0, 0, 0, 43766, 32149, 0, 0, 0, 15686, 0, 0, 0, 40249, 0, 0, 0, 0, 0, 0, 0, 0, 26193, 0, 0, 0, 41177, 0, 28642, 33706, 0, 0, 43672, 0, 0],[0, 0, 0, 25183, 30973, 0, 0, 44946, 43329, 35782, 0, 0, 0, 0, -1, 0, 0, 44551, 0, 0, 0, 0, 0, 0, 33120, 9439, 0, 0, 0, 0, 0, 0, 0, 31507, 0, 29614, 0, 0, 0, 0, 0, 0, 0, 0, 0, 0, 0, 0, 0, 0, 45808, 0, 0, 0, 32305, 0, 42202, 0, 0, 30243, 45176, 0, 20966, 18022, 0, 0, 23839, 0, 0, 40961, 0, 0, 0, 0, 0, 0, 37163, 24377, 0, 0],[0, 0, 39904, 35133, 0, 40203, 20442, 0, 42762, 0, 0, 0, 0, 20699, 0, -1, 0, 0, 0, 44413, 0, 20290, 0, 0, 0, 0, 0, 0, 0, 39482, 0, 0, 0, 32084, 0, 36626, 19226, 0, 31771, 32958, 0, 45563, 0, 0, 25856, 0, 0, 0, 37426, 28657, 0, 0, 0, 43869, 40730, 0, 0, 0, 0, 25901, 0, 0, 0, 0, 0, 17458, 0, 0, 28227, 0, 0, 0, 37164, 35095, 0, 0, 0, 0, 0, 32581],[23512, 25368, 0, 0, 0, 0, 0, 29645, 20034, 0, 0, 0, 0, 0, 0, 0, -1, 0, 0, 0, 0, 0, 0, 40200, 39824, 31744, 0, 13622, 0, 0, 0, 0, 0, 11818, 0, 0, 0, 0, 0, 0, 19264, 0, 16145, 0, 0, 0, 28201, 0, 39817, 22819, 25102, 0, 0, 0, 0, 0, 0, 0, 0, 0, 0, 0, 0, 0, 0, 0, 0, 0, 0, 43556, 0, 0, 26773, 0, 0, 36533, 0, 0, 0, 0],[30442, 0, 0, 32344, 0, 0, 0, 0, 0, 36959, 0, 0, 0, 42936, 44551, 0, 0, -1, 0, 44067, 0, 14202, 0, 0, 0, 0, 0, 0, 23337, 22536, 0, 0, 0, 42564, 0, 0, 35484, 45442, 0, 0, 32215, 46285, 0, 0, 0, 0, 0, 0, 30771, 42618, 0, 0, 0, 0, 0, 0, 0, 0, 44815, 0, 7748, 0, 0, 0, 0, 0, 0, 14849, 0, 0, 0, 29096, 0, 34359, 0, 0, 24460, 0, 0, 0],[0, 0, 0, 0, 0, 0, 0, 29148, 0, 0, 0, 0, 0, 0, 0, 0, 0, 0, -1, 22115, 0, 31972, 0, 0, 0, 0, 0, 34863, 0, 0, 0, 0, 0, 0, 0, 0, 25510, 0, 35896, 0, 0, 0, 0, 0, 0, 0, 26888, 0, 0, 0, 0, 0, 0, 32827, 0, 0, 29441, 0, 30678, 0, 0, 0, 0, 0, 39349, 41510, 0, 0, 45791, 0, 0, 43302, 9799, 32679, 0, 0, 0, 25122, 0, 24964],[0, 0, 0, 0, 0, 0, 0, 0, 0, 0, 0, 0, 0, 0, 0, 44413, 0, 44067, 22115, -1, 37305, 0, 0, 0, 0, 0, 0, 0, 36160, 0, 0, 24796, 0, 0, 0, 0, 0, 0, 0, 0, 0, 0, 41155, 0, 0, 38031, 0, 0, 0, 0, 36032, 37835, 0, 46098, 0, 24593, 0, 0, 0, 0, 0, 34457, 41537, 0, 0, 20820, 26574, 0, 0, 0, 0, 0, 0, 0, 0, 0, 30922, 38843, 0, 0],[0, 0, 36617, 0, 0, 39843, 19439, 0, 0, 23578, 0, 0, 0, 38997, 0, 0, 0, 0, 0, 37305, -1, 11897, 0, 6611, 0, 0, 27969, 0, 0, 0, 0, 0, 0, 0, 0, 0, 43551, 0, 0, 0, 0, 28768, 39295, 0, 0, 0, 0, 0, 0, 11062, 0, 0, 23519, 0, 0, 0, 0, 0, 0, 20444, 0, 0, 0, 0, 0, 39534, 0, 0, 0, 45705, 0, 0, 26540, 0, 0, 0, 0, 8082, 0, 0],[0, 24223, 0, 29520, 0, 0, 0, 0, 0, 0, 0, 0, 0, 43649, 0, 20290, 0, 14202, 31972, 0, 11897, -1, 0, 0, 33528, 0, 0, 33648, 0, 0, 0, 21430, 0, 33067, 0, 15345, 29278, 33926, 25795, 0, 43047, 39303, 0, 0, 0, 0, 0, 0, 0, 0, 0, 35109, 0, 0, 44525, 0, 0, 0, 36394, 0, 6432, 0, 0, 0, 19112, 43206, 0, 0, 0, 0, 0, 0, 0, 0, 0, 0, 0, 41779, 0, 0],[22294, 0, 0, 0, 0, 0, 0, 0, 0, 43446, 0, 0, 0, 31198, 0, 0, 0, 0, 0, 0, 0, 0, -1, 0, 0, 0, 16670, 0, 0, 0, 0, 0, 0, 0, 0, 0, 0, 0, 0, 31171, 0, 0, 0, 22192, 0, 0, 15118, 46018, 0, 0, 12782, 0, 0, 0, 2446, 0, 41317, 0, 11533, 0, 36752, 0, 0, 0, 0, 0, 0, 0, 0, 0, 42332, 0, 20845, 37951, 0, 0, 0, 0, 24951, 0],[0, 31157, 0, 29914, 43078, 34802, 34708, 0, 0, 0, 0, 8224, 0, 0, 0, 0, 40200, 0, 0, 0, 6611, 0, 0, -1, 34191, 0, 31596, 16268, 0, 0, 41081, 0, 0, 0, 0, 0, 0, 0, 0, 0, 37699, 40538, 45294, 0, 0, 0, 0, 0, 43045, 0, 0, 0, 0, 0, 16670, 0, 0, 0, 0, 0, 0, 29966, 36099, 0, 0, 22785, 44421, 0, 24911, 40672, 0, 0, 0, 43505, 0, 35033, 0, 0, 4806, 0],[39894, 0, 0, 34068, 0, 0, 0, 0, 22733, 31128, 0, 0, 0, 44328, 33120, 0, 39824, 0, 0, 0, 0, 33528, 0, 34191, -1, 41702, 0, 31278, 31151, 0, 0, 0, 0, 0, 17619, 0, 0, 0, 0, 0, 0, 28174, 0, 0, 0, 0, 0, 0, 25331, 0, 0, 0, 44771, 0, 45093, 0, 0, 22410, 24849, 39890, 0, 0, 0, 0, 0, 0, 25019, 0, 0, 18477, 27889, 0, 37669, 0, 0, 0, 0, 0, 0, 0],[39677, 0, 0, 0, 42112, 0, 0, 8843, 0, 0, 0, 3716, 0, 0, 9439, 0, 31744, 0, 0, 0, 0, 0, 0, 0, 41702, -1, 0, 0, 0, 41656, 24620, 0, 28263, 0, 24629, 0, 0, 0, 0, 0, 0, 0, 5267, 31954, 19370, 0, 0, 0, 0, 37878, 0, 0, 0, 23122, 0, 0, 0, 0, 0, 32666, 0, 0, 0, 0, 0, 0, 0, 0, 0, 0, 0, 20298, 0, 0, 0, 29655, 0, 0, 31664, 0],[37317, 0, 0, 0, 0, 0, 37042, 0, 0, 0, 43788, 11519, 0, 0, 0, 0, 0, 0, 0, 0, 27969, 0, 16670, 31596, 0, 0, -1, 26617, 0, 0, 0, 0, 0, 43469, 0, 0, 0, 0, 0, 0, 0, 16289, 40246, 36971, 0, 0, 0, 0, 0, 27235, 0, 40426, 0, 0, 0, 0, 0, 0, 0, 12253, 0, 0, 0, 0, 0, 0, 0, 0, 0, 33533, 19875, 37772, 0, 0, 0, 0, 0, 17019, 0, 0],[0, 26615, 0, 0, 23177, 41074, 28848, 0, 0, 20692, 32304, 35845, 0, 0, 0, 0, 13622, 0, 34863, 0, 0, 33648, 0, 16268, 31278, 0, 26617, -1, 0, 0, 0, 0, 33658, 0, 0, 0, 0, 0, 0, 0, 0, 12773, 36570, 43040, 0, 0, 0, 10649, 22830, 0, 0, 0, 0, 13803, 0, 9083, 0, 0, 41810, 0, 44594, 0, 0, 0, 0, 0, 0, 0, 0, 18590, 0, 24439, 0, 0, 0, 0, 30200, 0, 0, 9817],[0, 0, 0, 0, 5649, 0, 20321, 0, 0, 0, 0, 18847, 0, 0, 0, 0, 0, 23337, 0, 36160, 0, 0, 0, 0, 31151, 0, 0, 0, -1, 0, 0, 0, 0, 21895, 0, 0, 16561, 37854, 14883, 34716, 0, 9676, 0, 35495, 0, 0, 0, 0, 0, 0, 0, 0, 0, 0, 8360, 0, 0, 0, 0, 0, 0, 0, 0, 0, 0, 0, 38562, 0, 22114, 0, 0, 0, 0, 0, 16972, 28947, 30796, 39434, 0, 27408],[0, 0, 21623, 0, 0, 0, 0, 0, 0, 0, 0, 0, 0, 0, 0, 39482, 0, 22536, 0, 0, 0, 0, 0, 0, 0, 41656, 0, 0, 0, -1, 0, 39190, 21320, 0, 0, 0, 39542, 0, 0, 0, 0, 0, 0, 34510, 0, 0, 0, 16200, 0, 37081, 0, 22705, 0, 29933, 0, 18323, 0, 0, 0, 0, 0, 0, 0, 0, 37922, 0, 0, 10548, 0, 0, 30965, 0, 0, 0, 0, 42609, 0, 0, 0, 0],[0, 0, 33423, 0, 0, 0, 0, 0, 0, 0, 0, 0, 39928, 26716, 0, 0, 0, 0, 0, 0, 0, 0, 0, 41081, 0, 24620, 0, 0, 0, 0, -1, 30957, 0, 0, 0, 0, 0, 0, 0, 17667, 20640, 0, 0, 0, 0, 0, 0, 0, 34009, 0, 30150, 0, 0, 34614, 0, 0, 0, 0, 0, 8974, 37650, 0, 21062, 36461, 30825, 16429, 0, 0, 29378, 0, 0, 0, 0, 0, 43493, 0, 0, 0, 40647, 0],[0, 0, 0, 0, 0, 0, 38941, 0, 0, 0, 33388, 0, 45366, 0, 0, 0, 0, 0, 0, 24796, 0, 21430, 0, 0, 0, 0, 0, 0, 0, 39190, 30957, -1, 0, 0, 0, 0, 32429, 0, 0, 0, 42929, 0, 0, 0, 42358, 46045, 0, 0, 0, 0, 26068, 0, 7015, 0, 0, 0, 0, 0, 0, 0, 0, 0, 0, 0, 0, 0, 0, 29608, 0, 45967, 0, 25236, 0, 0, 0, 0, 0, 0, 0, 0],[0, 0, 28522, 0, 0, 0, 0, 0, 29631, 0, 0, 0, 0, 0, 0, 0, 0, 0, 0, 0, 0, 0, 0, 0, 0, 28263, 0, 33658, 0, 21320, 0, 0, -1, 0, 0, 0, 0, 0, 0, 42396, 0, 0, 0, 0, 0, 0, 0, 35578, 0, 0, 0, 0, 0, 0, 0, 0, 37931, 0, 0, 0, 0, 33524, 0, 0, 0, 0, 0, 0, 29728, 0, 38577, 0, 0, 0, 0, 0, 0, 0, 0, 0],[0, 0, 0, 0, 15572, 0, 0, 0, 6408, 40077, 0, 0, 0, 41677, 31507, 32084, 11818, 42564, 0, 0, 0, 33067, 0, 0, 0, 0, 43469, 0, 21895, 0, 0, 0, 0, -1, 0, 0, 0, 0, 0, 0, 0, 0, 0, 0, 0, 0, 28502, 0, 16032, 15191, 0, 0, 0, 0, 0, 0, 0, 0, 0, 39514, 0, 0, 0, 0, 0, 41814, 0, 0, 33455, 0, 0, 0, 0, 31324, 0, 0, 42762, 0, 0, 0],[31319, 0, 26273, 0, 0, 31182, 0, 0, 0, 0, 0, 0, 0, 37867, 0, 0, 0, 0, 0, 0, 0, 0, 0, 0, 17619, 24629, 0, 0, 0, 0, 0, 0, 0, 0, -1, 0, 0, 0, 43246, 0, 0, 0, 44337, 0, 0, 0, 39216, 20216, 0, 0, 0, 0, 0, 27416, 0, 4967, 44130, 0, 14439, 0, 0, 0, 0, 0, 21576, 27199, 0, 0, 0, 12757, 0, 0, 0, 0, 0, 0, 28142, 23867, 14894, 33610],[0, 0, 0, 0, 39782, 0, 0, 39530, 0, 0, 0, 0, 0, 0, 29614, 36626, 0, 0, 0, 0, 0, 15345, 0, 0, 0, 0, 0, 0, 0, 0, 0, 0, 0, 0, 0, -1, 0, 46198, 0, 0, 0, 0, 0, 0, 0, 42541, 37618, 26373, 23990, 0, 0, 0, 0, 0, 0, 0, 0, 0, 0, 0, 0, 0, 0, 40770, 30823, 23165, 0, 0, 34612, 10136, 37211, 11814, 0, 21077, 0, 0, 0, 0, 0, 0],[38987, 0, 0, 0, 24947, 0, 43124, 0, 36974, 0, 0, 0, 0, 0, 0, 19226, 0, 35484, 25510, 0, 43551, 29278, 0, 0, 0, 0, 0, 0, 16561, 39542, 0, 32429, 0, 0, 0, 0, -1, 0, 0, 0, 0, 45674, 39855, 0, 0, 0, 0, 41914, 0, 0, 0, 0, 0, 0, 25130, 34032, 28037, 0, 42430, 0, 0, 42293, 0, 0, 24675, 0, 0, 0, 14897, 0, 26588, 0, 0, 0, 0, 0, 0, 0, 26462, 31020],[0, 0, 0, 0, 29639, 0, 0, 0, 20863, 0, 0, 0, 0, 0, 0, 0, 0, 45442, 0, 0, 0, 33926, 0, 0, 0, 0, 0, 0, 37854, 0, 0, 0, 0, 0, 0, 46198, 0, -1, 0, 22238, 36507, 0, 0, 0, 16988, 37311, 0, 0, 0, 0, 0, 0, 0, 0, 0, 38145, 0, 28670, 0, 0, 45336, 0, 38758, 0, 0, 0, 17385, 0, 0, 0, 0, 41489, 0, 44962, 0, 16287, 0, 0, 40874, 29637],[0, 0, 21664, 14223, 0, 0, 0, 0, 45634, 0, 36027, 0, 0, 35799, 0, 31771, 0, 0, 35896, 0, 0, 25795, 0, 0, 0, 0, 0, 0, 14883, 0, 0, 0, 0, 0, 43246, 0, 0, 0, -1, 16161, 45268, 0, 0, 0, 0, 0, 0, 0, 0, 0, 43492, 30042, 0, 0, 0, 0, 0, 0, 0, 0, 3107, 0, 29472, 35242, 0, 0, 0, 0, 0, 39328, 0, 0, 33746, 0, 0, 0, 15211, 0, 0, 0],[0, 0, 22751, 0, 0, 0, 0, 0, 0, 0, 39256, 0, 0, 0, 0, 32958, 0, 0, 0, 0, 0, 0, 31171, 0, 0, 0, 0, 0, 34716, 0, 17667, 0, 42396, 0, 0, 0, 0, 22238, 16161, -1, 23289, 0, 0, 0, 34612, 0, 36052, 0, 0, 37040, 38829, 24451, 31314, 0, 0, 32329, 0, 0, 0, 0, 0, 0, 0, 0, 37132, 0, 40288, 0, 0, 0, 23127, 0, 40852, 0, 0, 0, 0, 0, 0, 0],[0, 0, 0, 21119, 44818, 10818, 0, 0, 45399, 0, 0, 0, 37523, 43982, 0, 0, 19264, 32215, 0, 0, 0, 43047, 0, 37699, 0, 0, 0, 0, 0, 0, 20640, 42929, 0, 0, 0, 0, 0, 36507, 45268, 23289, -1, 0, 19702, 0, 32720, 37890, 0, 0, 0, 0, 0, 0, 0, 0, 43058, 0, 0, 0, 0, 0, 0, 0, 0, 0, 0, 0, 0, 0, 0, 0, 0, 39138, 0, 41563, 0, 0, 0, 0, 0, 0],[0, 0, 0, 39756, 39358, 0, 38348, 20745, 0, 39671, 0, 0, 0, 15664, 0, 45563, 0, 46285, 0, 0, 28768, 39303, 0, 40538, 28174, 0, 16289, 12773, 9676, 0, 0, 0, 0, 0, 0, 0, 45674, 0, 0, 0, 0, -1, 0, 8269, 0, 0, 0, 24542, 0, 21455, 0, 36780, 0, 43011, 0, 0, 0, 0, 0, 0, 21933, 32687, 15750, 0, 0, 0, 0, 0, 25112, 0, 0, 0, 0, 0, 0, 0, 0, 0, 32767, 40460],[0, 0, 0, 0, 0, 0, 0, 37965, 0, 0, 0, 0, 0, 0, 0, 0, 16145, 0, 0, 41155, 39295, 0, 0, 45294, 0, 5267, 40246, 36570, 0, 0, 0, 0, 0, 0, 44337, 0, 39855, 0, 0, 0, 19702, 0, -1, 41295, 0, 0, 0, 0, 0, 33402, 0, 0, 0, 0, 0, 0, 0, 0, 41572, 0, 45876, 0, 0, 14851, 0, 0, 31854, 0, 0, 0, 0, 0, 30965, 17850, 0, 36030, 0, 0, 0, 0],[44380, 0, 0, 0, 0, 0, 0, 0, 0, 0, 25722, 0, 0, 0, 0, 0, 0, 0, 0, 0, 0, 0, 22192, 0, 0, 31954, 36971, 43040, 35495, 34510, 0, 0, 0, 0, 0, 0, 0, 0, 0, 0, 0, 8269, 41295, -1, 0, 0, 0, 0, 0, 0, 0, 0, 0, 0, 0, 0, 0, 0, 43364, 42419, 0, 0, 20606, 0, 0, 0, 0, 0, 0, 0, 0, 0, 36674, 0, 0, 0, 35511, 0, 26064, 0],[0, 21887, 0, 0, 0, 0, 0, 0, 0, 0, 0, 0, 0, 0, 0, 25856, 0, 0, 0, 0, 0, 0, 0, 0, 0, 19370, 0, 0, 0, 0, 0, 42358, 0, 0, 0, 0, 0, 16988, 0, 34612, 32720, 0, 0, 0, -1, 0, 0, 0, 0, 41024, 0, 0, 27832, 0, 0, 34241, 0, 40427, 0, 0, 0, 0, 0, 0, 0, 18250, 0, 0, 0, 0, 24027, 0, 0, 0, 36590, 0, 0, 39916, 28752, 20421],[0, 26761, 0, 26474, 0, 0, 0, 0, 0, 0, 0, 0, 0, 34793, 0, 0, 0, 0, 0, 38031, 0, 0, 0, 0, 0, 0, 0, 0, 0, 0, 0, 46045, 0, 0, 0, 42541, 0, 37311, 0, 0, 37890, 0, 0, 0, 0, -1, 0, 0, 44418, 37912, 0, 0, 33718, 0, 0, 36746, 27022, 0, 28265, 6340, 0, 0, 0, 0, 45739, 40270, 0, 0, 0, 39874, 0, 0, 0, 0, 0, 0, 0, 0, 0, 0],[0, 0, 0, 0, 38856, 0, 22975, 0, 42732, 16736, 0, 0, 0, 0, 0, 0, 28201, 0, 26888, 0, 0, 0, 15118, 0, 0, 0, 0, 0, 0, 0, 0, 0, 0, 28502, 39216, 37618, 0, 0, 0, 36052, 0, 0, 0, 0, 0, 0, -1, 0, 0, 37649, 0, 31723, 0, 0, 16159, 0, 28013, 0, 0, 0, 0, 29163, 0, 0, 0, 0, 0, 0, 29560, 0, 0, 12151, 8863, 0, 0, 0, 0, 0, 0, 0],[0, 0, 0, 0, 41570, 31529, 0, 0, 0, 0, 0, 0, 0, 0, 0, 0, 0, 0, 0, 0, 0, 0, 46018, 0, 0, 0, 0, 10649, 0, 16200, 0, 0, 35578, 0, 20216, 26373, 41914, 0, 0, 0, 0, 24542, 0, 0, 0, 0, 0, -1, 0, 35865, 22335, 36943, 0, 33186, 0, 25771, 0, 39404, 0, 0, 0, 0, 0, 0, 0, 0, 0, 32110, 2855, 0, 0, 0, 0, 0, 0, 0, 4416, 0, 0, 0],[39375, 22938, 0, 31112, 0, 0, 0, 7815, 0, 0, 0, 0, 0, 0, 0, 37426, 39817, 30771, 0, 0, 0, 0, 0, 43045, 25331, 0, 0, 22830, 0, 0, 34009, 0, 0, 16032, 0, 23990, 0, 0, 0, 0, 0, 0, 0, 0, 0, 44418, 0, 0, -1, 19660, 0, 0, 0, 0, 0, 0, 45449, 0, 0, 0, 0, 0, 0, 0, 0, 28313, 0, 21719, 0, 33973, 0, 0, 0, 0, 0, 0, 0, 17483, 0, 37065],[27005, 0, 0, 0, 0, 0, 0, 0, 0, 0, 0, 0, 0, 43766, 0, 28657, 22819, 42618, 0, 0, 11062, 0, 0, 0, 0, 37878, 27235, 0, 0, 37081, 0, 0, 0, 15191, 0, 0, 0, 0, 0, 37040, 0, 21455, 33402, 0, 41024, 37912, 37649, 35865, 19660, -1, 0, 23751, 0, 0, 26136, 0, 0, 30676, 0, 0, 27515, 22015, 0, 0, 0, 0, 0, 0, 0, 0, 0, 0, 0, 0, 0, 0, 26778, 38351, 0, 0],[0, 0, 0, 0, 0, 0, 0, 0, 0, 24533, 39305, 0, 24437, 32149, 45808, 0, 25102, 0, 0, 36032, 0, 0, 12782, 0, 0, 0, 0, 0, 0, 0, 30150, 26068, 0, 0, 0, 0, 0, 0, 43492, 38829, 0, 0, 0, 0, 0, 0, 0, 22335, 0, 0, -1, 0, 0, 0, 0, 0, 0, 0, 0, 0, 0, 5032, 0, 34999, 30755, 0, 0, 22088, 20173, 0, 0, 4490, 0, 0, 0, 0, 0, 0, 0, 0],[24909, 0, 0, 35585, 0, 26274, 28996, 0, 0, 0, 0, 0, 0, 0, 0, 0, 0, 0, 0, 37835, 0, 35109, 0, 0, 0, 0, 40426, 0, 0, 22705, 0, 0, 0, 0, 0, 0, 0, 0, 30042, 24451, 0, 36780, 0, 0, 0, 0, 31723, 36943, 0, 23751, 0, -1, 0, 0, 0, 0, 0, 0, 21683, 0, 0, 17882, 0, 0, 0, 0, 0, 32066, 15575, 42696, 0, 0, 44430, 0, 0, 0, 30943, 44995, 0, 0],[0, 0, 41676, 20601, 18088, 0, 0, 0, 0, 0, 0, 26456, 0, 0, 0, 0, 0, 0, 0, 0, 23519, 0, 0, 0, 44771, 0, 0, 0, 0, 0, 0, 7015, 0, 0, 0, 0, 0, 0, 0, 31314, 0, 0, 0, 0, 27832, 33718, 0, 0, 0, 0, 0, 0, -1, 0, 0, 0, 0, 0, 5061, 0, 0, 0, 0, 0, 14865, 0, 39647, 32402, 0, 0, 0, 0, 0, 0, 0, 0, 0, 0, 0, 34320],[0, 0, 2373, 0, 0, 42893, 0, 29586, 0, 0, 0, 45207, 0, 0, 0, 43869, 0, 0, 32827, 46098, 0, 0, 0, 0, 0, 23122, 0, 13803, 0, 29933, 34614, 0, 0, 0, 27416, 0, 0, 0, 0, 0, 0, 43011, 0, 0, 0, 0, 0, 33186, 0, 0, 0, 0, 0, -1, 0, 0, 0, 0, 0, 0, 27323, 0, 0, 0, 33782, 0, 0, 0, 0, 8032, 0, 41130, 0, 0, 43386, 0, 0, 0, 0, 0],[0, 31815, 0, 0, 0, 0, 0, 0, 0, 30336, 0, 0, 45462, 15686, 32305, 40730, 0, 0, 0, 0, 0, 44525, 2446, 16670, 45093, 0, 0, 0, 8360, 0, 0, 0, 0, 0, 0, 0, 25130, 0, 0, 0, 43058, 0, 0, 0, 0, 0, 16159, 0, 0, 26136, 0, 0, 0, 0, -1, 0, 40268, 0, 7608, 32766, 0, 0, 0, 21409, 32437, 0, 26178, 14939, 0, 0, 0, 0, 0, 0, 0, 21191, 0, 0, 0, 0],[0, 0, 34259, 0, 31068, 0, 43294, 0, 0, 0, 0, 0, 0, 0, 0, 0, 0, 0, 0, 24593, 0, 0, 0, 0, 0, 0, 0, 9083, 0, 18323, 0, 0, 0, 0, 4967, 0, 34032, 38145, 0, 32329, 0, 0, 0, 0, 34241, 36746, 0, 25771, 0, 0, 0, 0, 0, 0, 0, -1, 0, 0, 0, 0, 14951, 0, 0, 0, 0, 10944, 0, 0, 45671, 0, 0, 0, 40266, 0, 0, 0, 0, 0, 0, 0],[0, 0, 0, 0, 25884, 0, 0, 41757, 0, 0, 0, 0, 0, 0, 42202, 0, 0, 0, 29441, 0, 0, 0, 41317, 0, 0, 0, 0, 0, 0, 0, 0, 0, 37931, 0, 44130, 0, 28037, 0, 0, 0, 0, 0, 0, 0, 0, 27022, 28013, 0, 45449, 0, 0, 0, 0, 0, 40268, 0, -1, 0, 0, 0, 0, 0, 10463, 0, 0, 32574, 0, 0, 0, 0, 42601, 25098, 0, 0, 0, 30284, 16371, 0, 0, 0],[35339, 0, 0, 19536, 0, 0, 0, 0, 37067, 0, 40470, 0, 0, 0, 0, 0, 0, 0, 0, 0, 0, 0, 0, 0, 22410, 0, 0, 0, 0, 0, 0, 0, 0, 0, 0, 0, 0, 28670, 0, 0, 0, 0, 0, 0, 40427, 0, 0, 39404, 0, 30676, 0, 0, 0, 0, 0, 0, 0, -1, 0, 0, 0, 0, 0, 0, 0, 0, 0, 0, 45075, 0, 39393, 0, 0, 0, 44372, 0, 0, 0, 46043, 0],[0, 0, 0, 0, 44364, 14914, 0, 0, 0, 19578, 0, 44132, 37825, 40249, 0, 0, 0, 44815, 30678, 0, 0, 36394, 11533, 0, 24849, 0, 0, 41810, 0, 0, 0, 0, 0, 0, 14439, 0, 42430, 0, 0, 0, 0, 0, 41572, 43364, 0, 28265, 0, 0, 0, 0, 0, 21683, 5061, 0, 7608, 0, 0, 0, -1, 0, 0, 0, 0, 0, 41477, 0, 0, 0, 39522, 0, 0, 29371, 0, 0, 0, 0, 0, 16521, 0, 31599],[10836, 31322, 0, 23169, 0, 40317, 0, 45839, 0, 0, 0, 37108, 0, 0, 30243, 25901, 0, 0, 0, 0, 20444, 0, 0, 0, 39890, 32666, 12253, 0, 0, 0, 8974, 0, 0, 39514, 0, 0, 0, 0, 0, 0, 0, 0, 0, 42419, 0, 6340, 0, 0, 0, 0, 0, 0, 0, 0, 32766, 0, 0, 0, 0, -1, 27394, 24967, 36438, 0, 17999, 0, 0, 0, 16067, 40706, 23512, 0, 0, 0, 0, 0, 43856, 40249, 0, 0],[22230, 0, 0, 0, 0, 0, 18026, 11243, 0, 0, 0, 36625, 0, 0, 45176, 0, 0, 7748, 0, 0, 0, 6432, 36752, 0, 0, 0, 0, 44594, 0, 0, 37650, 0, 0, 0, 0, 0, 0, 45336, 3107, 0, 0, 21933, 45876, 0, 0, 0, 0, 0, 0, 27515, 0, 0, 0, 27323, 0, 14951, 0, 0, 0, 27394, -1, 38972, 0, 0, 0, 0, 40411, 0, 30436, 0, 0, 0, 0, 0, 26890, 0, 24136, 0, 0, 0],[0, 0, 0, 0, 0, 24309, 0, 0, 0, 35203, 0, 0, 0, 0, 0, 0, 0, 0, 0, 34457, 0, 0, 0, 29966, 0, 0, 0, 0, 0, 0, 0, 0, 33524, 0, 0, 0, 42293, 0, 0, 0, 0, 32687, 0, 0, 0, 0, 29163, 0, 0, 22015, 5032, 17882, 0, 0, 0, 0, 0, 0, 0, 24967, 38972, -1, 0, 0, 0, 0, 0, 0, 0, 0, 0, 0, 0, 0, 0, 13305, 0, 0, 22918, 0],[0, 24619, 43779, 0, 26263, 0, 31384, 0, 22825, 21025, 18979, 0, 44638, 0, 20966, 0, 0, 0, 0, 41537, 0, 0, 0, 36099, 0, 0, 0, 0, 0, 0, 21062, 0, 0, 0, 0, 0, 0, 38758, 29472, 0, 0, 15750, 0, 20606, 0, 0, 0, 0, 0, 0, 0, 0, 0, 0, 0, 0, 10463, 0, 0, 36438, 0, 0, -1, 0, 32979, 31330, 0, 0, 0, 0, 0, 0, 0, 0, 0, 0, 0, 24263, 0, 0],[26710, 0, 0, 17478, 42443, 44231, 38501, 0, 0, 28223, 0, 0, 33468, 0, 18022, 0, 0, 0, 0, 0, 0, 0, 0, 0, 0, 0, 0, 0, 0, 0, 36461, 0, 0, 0, 0, 40770, 0, 0, 35242, 0, 0, 0, 14851, 0, 0, 0, 0, 0, 0, 0, 34999, 0, 0, 0, 21409, 0, 0, 0, 0, 0, 0, 0, 0, -1, 0, 29841, 0, 0, 0, 0, 0, 0, 0, 0, 0, 0, 39082, 0, 0, 27420],[0, 0, 0, 32064, 0, 0, 0, 0, 34412, 0, 0, 0, 0, 0, 0, 0, 0, 0, 39349, 0, 0, 19112, 0, 0, 0, 0, 0, 0, 0, 37922, 30825, 0, 0, 0, 21576, 30823, 24675, 0, 0, 37132, 0, 0, 0, 0, 0, 45739, 0, 0, 0, 0, 30755, 0, 14865, 33782, 32437, 0, 0, 0, 41477, 17999, 0, 0, 32979, 0, -1, 45045, 0, 0, 21897, 0, 0, 0, 0, 44250, 0, 34208, 0, 0, 26464, 0],[0, 0, 42177, 0, 35640, 37056, 0, 0, 32050, 0, 0, 0, 0, 0, 0, 17458, 0, 0, 41510, 20820, 39534, 43206, 0, 22785, 0, 0, 0, 0, 0, 0, 16429, 0, 0, 41814, 27199, 23165, 0, 0, 0, 0, 0, 0, 0, 0, 18250, 40270, 0, 0, 28313, 0, 0, 0, 0, 0, 0, 10944, 32574, 0, 0, 0, 0, 0, 31330, 29841, 45045, -1, 0, 0, 0, 0, 0, 0, 0, 0, 0, 31687, 0, 30615, 0, 31325],[0, 0, 0, 0, 0, 0, 0, 0, 0, 0, 26394, 0, 0, 0, 23839, 0, 0, 0, 0, 26574, 0, 0, 0, 44421, 25019, 0, 0, 0, 38562, 0, 0, 0, 0, 0, 0, 0, 0, 17385, 0, 40288, 0, 0, 31854, 0, 0, 0, 0, 0, 0, 0, 0, 0, 39647, 0, 26178, 0, 0, 0, 0, 0, 40411, 0, 0, 0, 0, 0, -1, 0, 0, 36928, 0, 28857, 0, 0, 0, 0, 0, 33434, 22607, 0],[0, 0, 45625, 0, 24554, 0, 0, 38296, 0, 18627, 5023, 0, 31200, 26193, 0, 0, 0, 14849, 0, 0, 0, 0, 0, 0, 0, 0, 0, 0, 0, 10548, 0, 29608, 0, 0, 0, 0, 0, 0, 0, 0, 0, 0, 0, 0, 0, 0, 0, 32110, 21719, 0, 22088, 32066, 32402, 0, 14939, 0, 0, 0, 0, 0, 0, 0, 0, 0, 0, 0, 0, -1, 0, 43410, 0, 19141, 0, 0, 32452, 0, 45731, 3167, 43474, 0],[0, 39985, 0, 0, 0, 28304, 0, 4651, 35255, 0, 0, 0, 0, 0, 0, 28227, 0, 0, 45791, 0, 0, 0, 0, 24911, 0, 0, 0, 0, 22114, 0, 29378, 0, 29728, 33455, 0, 34612, 14897, 0, 0, 0, 0, 25112, 0, 0, 0, 0, 29560, 2855, 0, 0, 20173, 15575, 0, 0, 0, 45671, 0, 45075, 39522, 16067, 30436, 0, 0, 0, 21897, 0, 0, 0, -1, 0, 0, 0, 0, 0, 34711, 42990, 23525, 0, 21639, 16143],[0, 0, 0, 0, 32735, 0, 0, 24599, 34640, 0, 0, 25331, 0, 0, 40961, 0, 43556, 0, 0, 0, 45705, 0, 0, 40672, 18477, 0, 33533, 18590, 0, 0, 0, 45967, 0, 0, 12757, 10136, 0, 0, 39328, 0, 0, 0, 0, 0, 0, 39874, 0, 0, 33973, 0, 0, 42696, 0, 8032, 0, 0, 0, 0, 0, 40706, 0, 0, 0, 0, 0, 0, 36928, 43410, 0, -1, 39619, 0, 27812, 0, 0, 0, 0, 0, 0, 0],[16180, 0, 0, 0, 0, 27023, 0, 0, 0, 0, 0, 0, 0, 0, 0, 0, 0, 0, 0, 0, 0, 0, 42332, 0, 27889, 0, 19875, 0, 0, 30965, 0, 0, 38577, 0, 0, 37211, 26588, 0, 0, 23127, 0, 0, 0, 0, 24027, 0, 0, 0, 0, 0, 0, 0, 0, 0, 0, 0, 42601, 39393, 0, 23512, 0, 0, 0, 0, 0, 0, 0, 0, 0, 39619, -1, 0, 0, 9258, 0, 0, 5625, 0, 0, 0],[41100, 0, 44503, 38720, 0, 0, 0, 0, 44811, 45867, 0, 0, 0, 41177, 0, 0, 0, 29096, 43302, 0, 0, 0, 0, 0, 0, 20298, 37772, 24439, 0, 0, 0, 25236, 0, 0, 0, 11814, 0, 41489, 0, 0, 39138, 0, 0, 0, 0, 0, 12151, 0, 0, 0, 4490, 0, 0, 41130, 0, 0, 25098, 0, 29371, 0, 0, 0, 0, 0, 0, 0, 28857, 19141, 0, 0, 0, -1, 0, 40516, 0, 0, 45372, 28468, 0, 0],[0, 0, 0, 0, 42946, 0, 39190, 0, 0, 24025, 20388, 0, 0, 0, 0, 37164, 26773, 0, 9799, 0, 26540, 0, 20845, 0, 37669, 0, 0, 0, 0, 0, 0, 0, 0, 0, 0, 0, 0, 0, 33746, 40852, 0, 0, 30965, 36674, 0, 0, 8863, 0, 0, 0, 0, 44430, 0, 0, 0, 40266, 0, 0, 0, 0, 0, 0, 0, 0, 0, 0, 0, 0, 0, 27812, 0, 0, -1, 0, 0, 0, 0, 22654, 34888, 0],[5134, 0, 0, 42181, 0, 0, 0, 27826, 0, 24317, 0, 0, 0, 28642, 0, 35095, 0, 34359, 32679, 0, 0, 0, 37951, 43505, 0, 0, 0, 0, 0, 0, 0, 0, 0, 31324, 0, 21077, 0, 44962, 0, 0, 41563, 0, 17850, 0, 0, 0, 0, 0, 0, 0, 0, 0, 0, 0, 0, 0, 0, 0, 0, 0, 0, 0, 0, 0, 44250, 0, 0, 0, 0, 0, 9258, 40516, 0, -1, 0, 29457, 32010, 0, 0, 34767],[0, 0, 0, 0, 0, 0, 36508, 0, 0, 0, 0, 0, 45329, 33706, 0, 0, 0, 0, 0, 0, 0, 0, 0, 0, 0, 0, 0, 0, 16972, 0, 43493, 0, 0, 0, 0, 0, 0, 0, 0, 0, 0, 0, 0, 0, 36590, 0, 0, 0, 0, 0, 0, 0, 0, 43386, 0, 0, 0, 44372, 0, 0, 26890, 0, 0, 0, 0, 0, 0, 32452, 34711, 0, 0, 0, 0, 0, -1, 42273, 0, 0, 0, 0],[40771, 0, 22669, 0, 0, 0, 0, 0, 0, 0, 0, 25024, 0, 0, 0, 0, 36533, 0, 0, 0, 0, 0, 0, 35033, 0, 29655, 0, 0, 28947, 42609, 0, 0, 0, 0, 0, 0, 0, 16287, 0, 0, 0, 0, 36030, 0, 0, 0, 0, 0, 0, 0, 0, 0, 0, 0, 21191, 0, 30284, 0, 0, 0, 0, 13305, 0, 0, 34208, 31687, 0, 0, 42990, 0, 0, 0, 0, 29457, 42273, -1, 0, 20849, 0, 33308],[39874, 0, 43042, 0, 0, 40249, 0, 0, 31139, 0, 0, 0, 0, 0, 37163, 0, 0, 24460, 0, 30922, 0, 0, 0, 0, 0, 0, 0, 30200, 30796, 0, 0, 0, 0, 42762, 28142, 0, 0, 0, 15211, 0, 0, 0, 0, 35511, 0, 0, 0, 4416, 0, 26778, 0, 30943, 0, 0, 0, 0, 16371, 0, 0, 43856, 24136, 0, 0, 39082, 0, 0, 0, 45731, 23525, 0, 5625, 45372, 0, 32010, 0, 0, -1, 33218, 0, 0],[0, 13935, 0, 0, 0, 0, 0, 30814, 43151, 0, 27953, 0, 0, 43672, 24377, 0, 0, 0, 25122, 38843, 8082, 41779, 0, 0, 0, 0, 17019, 0, 39434, 0, 0, 0, 0, 0, 23867, 0, 0, 0, 0, 0, 0, 0, 0, 0, 39916, 0, 0, 0, 17483, 38351, 0, 44995, 0, 0, 0, 0, 0, 0, 16521, 40249, 0, 0, 24263, 0, 0, 30615, 33434, 3167, 0, 0, 0, 28468, 22654, 0, 0, 20849, 33218, -1, 0, 0],[0, 0, 23734, 0, 0, 0, 16312, 0, 0, 0, 0, 34916, 0, 0, 0, 0, 0, 0, 0, 0, 0, 0, 24951, 4806, 0, 31664, 0, 0, 0, 0, 40647, 0, 0, 0, 14894, 0, 26462, 40874, 0, 0, 0, 32767, 0, 26064, 28752, 0, 0, 0, 0, 0, 0, 0, 0, 0, 0, 0, 0, 46043, 0, 0, 0, 22918, 0, 0, 26464, 0, 22607, 43474, 21639, 0, 0, 0, 34888, 0, 0, 0, 0, 0, -1, 0],[0, 0, 32203, 41679, 0, 0, 32174, 0, 0, 0, 24265, 0, 0, 0, 0, 32581, 0, 0, 24964, 0, 0, 0, 0, 0, 0, 0, 0, 9817, 27408, 0, 0, 0, 0, 0, 33610, 0, 31020, 29637, 0, 0, 0, 40460, 0, 0, 20421, 0, 0, 0, 37065, 0, 0, 0, 34320, 0, 0, 0, 0, 0, 31599, 0, 0, 0, 0, 27420, 0, 31325, 0, 0, 16143, 0, 0, 0, 0, 34767, 0, 33308, 0, 0, 0, -1]]